p td 600 1737 
259 1
259 11
259 12
259 20
259 29
259 30
259 44
259 46
259 51
259 52
259 69
259 71
259 72
259 73
259 79
259 82
259 83
259 95
259 99
259 102
259 124
259 128
259 134
259 138
259 139
259 141
259 149
259 152
259 155
259 162
259 166
259 171
259 172
259 173
259 177
259 178
259 179
259 182
259 188
259 192
259 195
259 209
259 218
259 221
259 222
259 231
259 241
259 245
259 251
259 266
259 274
259 280
259 281
259 283
259 286
259 287
259 293
259 298
259 301
259 305
259 312
259 333
259 340
259 341
259 342
259 343
259 361
259 364
259 365
259 371
259 373
259 375
259 377
259 379
259 381
259 384
259 387
259 389
259 390
259 394
259 399
259 400
259 401
259 404
259 414
259 416
259 421
259 430
259 437
259 444
259 448
259 449
259 451
259 456
259 464
259 465
259 467
259 470
259 474
259 477
259 486
259 487
259 489
259 494
259 503
259 509
259 520
259 528
259 529
259 532
259 536
259 541
259 552
259 553
259 555
259 563
259 564
259 566
259 568
259 572
259 579
259 589
259 593
259 594
259 595
22 12
22 13
22 21
22 25
22 30
22 31
22 44
22 46
22 51
22 58
22 67
22 76
22 80
22 81
22 85
22 87
22 89
22 91
22 97
22 103
22 104
22 107
22 111
22 118
22 119
22 122
22 138
22 147
22 148
22 153
22 155
22 156
22 161
22 162
22 163
22 164
22 166
22 177
22 178
22 180
22 183
22 189
22 191
22 194
22 203
22 207
22 212
22 214
22 215
22 220
22 222
22 224
22 233
22 235
22 240
22 242
22 245
22 248
22 250
22 254
22 257
22 261
22 264
22 270
22 271
22 279
22 283
22 292
22 295
22 297
22 301
22 324
22 340
22 342
22 353
22 356
22 360
22 363
22 367
22 368
22 386
22 389
22 390
22 398
22 408
22 414
22 418
22 420
22 421
22 422
22 423
22 424
22 436
22 443
22 444
22 446
22 447
22 457
22 460
22 463
22 468
22 474
22 478
22 480
22 493
22 511
22 512
22 513
22 515
22 523
22 528
22 533
22 534
22 547
22 554
22 555
22 556
22 557
22 561
22 568
22 572
22 575
22 581
22 583
274 1
274 2
274 3
274 4
274 6
274 8
274 14
274 16
274 23
274 24
274 25
274 26
274 35
274 39
274 54
274 63
274 65
274 71
274 74
274 87
274 90
274 99
274 107
274 115
274 117
274 119
274 123
274 126
274 137
274 140
274 144
274 146
274 159
274 161
274 168
274 175
274 178
274 184
274 186
274 187
274 192
274 206
274 208
274 211
274 213
274 215
274 216
274 218
274 220
274 223
274 224
274 227
274 237
274 239
274 244
274 247
274 249
274 251
274 257
274 262
274 265
274 266
274 268
274 270
274 271
274 273
274 277
274 279
274 284
274 285
274 287
274 289
274 294
274 304
274 315
274 322
274 323
274 324
274 331
274 332
274 337
274 341
274 343
274 346
274 358
274 365
274 366
274 376
274 381
274 384
274 404
274 405
274 409
274 417
274 421
274 423
274 427
274 429
274 438
274 439
274 441
274 446
274 448
274 458
274 473
274 478
274 489
274 496
274 509
274 513
274 523
274 525
274 527
274 534
274 535
274 547
274 553
274 554
274 555
274 556
274 559
274 562
274 563
274 567
274 572
274 575
274 582
274 583
274 584
274 585
274 586
274 589
274 590
274 592
274 594
274 598
274 599
274 600
120 4
120 5
120 14
120 17
120 19
120 20
120 23
120 29
120 36
120 37
120 39
120 41
120 47
120 49
120 50
120 52
120 54
120 61
120 63
120 76
120 79
120 80
120 85
120 91
120 99
120 100
120 102
120 109
120 111
120 117
120 122
120 131
120 133
120 137
120 139
120 152
120 153
120 161
120 164
120 165
120 170
120 171
120 188
120 211
120 213
120 216
120 220
120 225
120 228
120 235
120 236
120 238
120 239
120 255
120 259
120 274
120 276
120 279
120 280
120 283
120 289
120 290
120 296
120 297
120 305
120 306
120 313
120 326
120 327
120 332
120 337
120 342
120 344
120 345
120 358
120 359
120 367
120 371
120 376
120 380
120 387
120 390
120 394
120 396
120 400
120 404
120 407
120 408
120 420
120 427
120 433
120 435
120 442
120 443
120 450
120 457
120 463
120 464
120 473
120 474
120 475
120 483
120 495
120 498
120 501
120 502
120 504
120 509
120 517
120 520
120 521
120 525
120 526
120 528
120 531
120 539
120 548
120 552
120 557
120 559
120 560
120 563
120 564
120 571
120 578
120 592
120 593
120 594
384 14
384 16
384 17
384 21
384 25
384 33
384 34
384 36
384 38
384 42
384 44
384 45
384 61
384 71
384 82
384 88
384 98
384 107
384 113
384 124
384 135
384 136
384 138
384 141
384 150
384 153
384 156
384 163
384 164
384 169
384 178
384 184
384 192
384 198
384 205
384 206
384 237
384 240
384 248
384 252
384 256
384 263
384 269
384 271
384 277
384 278
384 280
384 282
384 292
384 307
384 313
384 314
384 318
384 320
384 329
384 330
384 331
384 334
384 336
384 338
384 344
384 347
384 349
384 354
384 358
384 361
384 368
384 378
384 385
384 387
384 390
384 396
384 402
384 412
384 420
384 427
384 432
384 436
384 437
384 440
384 444
384 447
384 460
384 463
384 466
384 471
384 475
384 476
384 478
384 490
384 493
384 495
384 498
384 499
384 504
384 507
384 508
384 517
384 518
384 523
384 525
384 528
384 536
384 537
384 542
384 544
384 552
384 567
384 572
384 574
384 576
384 580
384 583
384 584
384 585
384 590
384 596
384 597
384 599
17 2
17 8
17 15
17 19
17 20
17 29
17 35
17 37
17 55
17 63
17 66
17 81
17 86
17 89
17 93
17 96
17 98
17 102
17 103
17 110
17 117
17 122
17 126
17 131
17 132
17 136
17 138
17 146
17 147
17 168
17 177
17 181
17 186
17 193
17 203
17 205
17 206
17 207
17 208
17 209
17 210
17 216
17 220
17 226
17 235
17 251
17 252
17 256
17 271
17 272
17 277
17 278
17 284
17 297
17 299
17 300
17 309
17 310
17 315
17 323
17 330
17 335
17 354
17 369
17 379
17 383
17 392
17 414
17 417
17 425
17 433
17 434
17 438
17 446
17 470
17 471
17 475
17 476
17 477
17 482
17 484
17 489
17 493
17 497
17 507
17 509
17 530
17 531
17 534
17 535
17 540
17 541
17 549
17 550
17 561
17 578
17 580
17 584
17 592
17 595
17 596
17 598
17 600
451 3
451 10
451 13
451 15
451 20
451 22
451 26
451 29
451 30
451 38
451 41
451 42
451 45
451 52
451 55
451 57
451 58
451 65
451 67
451 76
451 84
451 90
451 96
451 97
451 99
451 102
451 105
451 110
451 136
451 143
451 146
451 156
451 158
451 170
451 171
451 172
451 173
451 181
451 183
451 201
451 206
451 213
451 222
451 223
451 226
451 227
451 229
451 234
451 236
451 248
451 252
451 260
451 265
451 270
451 273
451 281
451 284
451 288
451 298
451 302
451 318
451 327
451 330
451 331
451 333
451 335
451 336
451 347
451 352
451 361
451 371
451 372
451 376
451 395
451 396
451 398
451 399
451 409
451 416
451 423
451 428
451 430
451 431
451 432
451 433
451 436
451 440
451 442
451 446
451 457
451 458
451 461
451 464
451 467
451 483
451 495
451 499
451 500
451 502
451 509
451 512
451 513
451 514
451 530
451 532
451 534
451 535
451 540
451 541
451 543
451 544
451 548
451 549
451 551
451 559
451 561
451 575
451 580
451 586
451 588
451 589
451 594
451 600
220 13
220 18
220 19
220 23
220 24
220 26
220 27
220 28
220 31
220 32
220 34
220 35
220 37
220 40
220 48
220 53
220 54
220 67
220 70
220 74
220 81
220 83
220 84
220 86
220 89
220 90
220 97
220 101
220 111
220 113
220 120
220 125
220 127
220 131
220 136
220 138
220 141
220 143
220 159
220 176
220 177
220 195
220 196
220 199
220 207
220 208
220 210
220 215
220 216
220 217
220 220
220 223
220 228
220 231
220 232
220 235
220 237
220 238
220 241
220 252
220 254
220 263
220 266
220 277
220 281
220 282
220 288
220 294
220 296
220 311
220 313
220 314
220 316
220 318
220 321
220 343
220 346
220 363
220 370
220 372
220 375
220 402
220 403
220 412
220 414
220 416
220 417
220 420
220 423
220 429
220 430
220 434
220 441
220 450
220 451
220 464
220 465
220 480
220 486
220 489
220 497
220 499
220 501
220 502
220 506
220 508
220 512
220 525
220 533
220 534
220 539
220 547
220 561
220 562
220 565
220 566
220 567
220 572
220 574
220 576
220 589
401 9
401 10
401 14
401 21
401 22
401 31
401 34
401 37
401 49
401 63
401 64
401 65
401 67
401 71
401 78
401 81
401 84
401 87
401 97
401 98
401 100
401 101
401 106
401 109
401 114
401 118
401 119
401 122
401 130
401 132
401 138
401 152
401 155
401 156
401 159
401 165
401 173
401 178
401 180
401 182
401 183
401 185
401 187
401 189
401 190
401 194
401 197
401 198
401 199
401 209
401 212
401 219
401 221
401 225
401 227
401 230
401 234
401 235
401 238
401 239
401 245
401 249
401 252
401 253
401 256
401 259
401 270
401 274
401 275
401 278
401 281
401 285
401 287
401 289
401 298
401 301
401 305
401 306
401 310
401 312
401 314
401 326
401 331
401 332
401 336
401 342
401 352
401 356
401 360
401 373
401 375
401 377
401 381
401 383
401 386
401 397
401 400
401 406
401 411
401 418
401 419
401 422
401 423
401 427
401 434
401 438
401 451
401 463
401 470
401 471
401 472
401 474
401 481
401 496
401 498
401 506
401 508
401 513
401 516
401 528
401 536
401 541
401 542
401 546
401 558
401 563
401 566
401 575
401 577
401 580
401 581
401 582
588 12
588 14
588 15
588 19
588 21
588 23
588 25
588 27
588 28
588 31
588 38
588 40
588 44
588 63
588 68
588 75
588 79
588 81
588 86
588 88
588 89
588 91
588 93
588 98
588 106
588 110
588 115
588 116
588 121
588 123
588 125
588 132
588 141
588 145
588 147
588 150
588 153
588 155
588 157
588 165
588 166
588 170
588 171
588 172
588 173
588 182
588 185
588 187
588 189
588 191
588 192
588 196
588 207
588 210
588 213
588 215
588 217
588 218
588 219
588 225
588 227
588 229
588 230
588 239
588 244
588 245
588 246
588 248
588 256
588 260
588 266
588 273
588 276
588 289
588 291
588 294
588 301
588 304
588 305
588 310
588 312
588 325
588 326
588 328
588 329
588 330
588 331
588 338
588 339
588 340
588 344
588 346
588 349
588 350
588 360
588 365
588 375
588 376
588 383
588 387
588 399
588 403
588 405
588 420
588 421
588 424
588 432
588 435
588 437
588 442
588 445
588 456
588 458
588 461
588 462
588 474
588 477
588 498
588 504
588 509
588 511
588 519
588 522
588 524
588 527
588 529
588 531
588 532
588 537
588 539
588 546
588 563
588 564
588 566
588 567
588 570
588 572
588 573
588 578
588 586
588 594
588 595
316 6
316 15
316 20
316 23
316 25
316 34
316 35
316 47
316 48
316 60
316 63
316 66
316 70
316 72
316 78
316 80
316 101
316 106
316 119
316 124
316 128
316 146
316 148
316 162
316 164
316 180
316 181
316 188
316 189
316 194
316 200
316 216
316 219
316 226
316 228
316 229
316 231
316 237
316 239
316 250
316 255
316 262
316 266
316 268
316 270
316 272
316 276
316 279
316 282
316 286
316 289
316 290
316 291
316 293
316 295
316 297
316 298
316 306
316 320
316 324
316 326
316 328
316 330
316 332
316 336
316 341
316 342
316 361
316 368
316 376
316 382
316 391
316 392
316 401
316 402
316 425
316 426
316 428
316 430
316 434
316 437
316 442
316 444
316 454
316 480
316 483
316 486
316 490
316 494
316 499
316 509
316 510
316 512
316 514
316 516
316 517
316 518
316 531
316 532
316 534
316 542
316 550
316 557
316 562
316 587
316 592
316 596
316 599
197 1
197 4
197 6
197 11
197 22
197 23
197 26
197 33
197 34
197 36
197 38
197 40
197 47
197 51
197 64
197 68
197 69
197 70
197 74
197 75
197 84
197 88
197 94
197 97
197 100
197 101
197 104
197 108
197 117
197 126
197 129
197 134
197 135
197 158
197 160
197 164
197 165
197 172
197 177
197 182
197 184
197 185
197 193
197 194
197 207
197 214
197 220
197 225
197 237
197 238
197 240
197 251
197 253
197 262
197 263
197 274
197 277
197 279
197 286
197 288
197 292
197 293
197 294
197 300
197 304
197 306
197 310
197 316
197 322
197 323
197 325
197 328
197 333
197 338
197 339
197 345
197 354
197 357
197 358
197 359
197 371
197 375
197 377
197 381
197 397
197 405
197 406
197 408
197 418
197 424
197 426
197 429
197 430
197 433
197 434
197 443
197 448
197 451
197 459
197 460
197 469
197 474
197 479
197 482
197 492
197 493
197 497
197 503
197 505
197 508
197 509
197 510
197 511
197 515
197 516
197 517
197 522
197 532
197 541
197 548
197 552
197 556
197 565
197 568
197 569
197 573
197 575
197 583
197 588
197 590
197 594
197 597
197 600
517 1
517 2
517 7
517 13
517 14
517 19
517 22
517 43
517 44
517 45
517 46
517 47
517 49
517 56
517 61
517 64
517 68
517 71
517 79
517 86
517 87
517 99
517 100
517 104
517 111
517 127
517 140
517 141
517 142
517 143
517 153
517 157
517 161
517 164
517 174
517 182
517 186
517 189
517 197
517 200
517 201
517 208
517 221
517 231
517 237
517 242
517 247
517 250
517 252
517 255
517 259
517 272
517 274
517 276
517 283
517 285
517 301
517 302
517 305
517 308
517 309
517 311
517 329
517 332
517 334
517 343
517 353
517 358
517 374
517 377
517 379
517 388
517 389
517 393
517 395
517 402
517 413
517 416
517 424
517 430
517 431
517 445
517 446
517 448
517 465
517 468
517 469
517 471
517 476
517 478
517 485
517 493
517 495
517 504
517 512
517 513
517 522
517 526
517 527
517 531
517 533
517 541
517 542
517 548
517 559
517 567
517 568
517 569
517 570
517 577
517 584
517 593
356 1
356 6
356 10
356 12
356 20
356 27
356 28
356 29
356 33
356 36
356 38
356 41
356 48
356 51
356 55
356 63
356 69
356 71
356 82
356 100
356 102
356 104
356 106
356 108
356 109
356 110
356 124
356 126
356 134
356 135
356 136
356 141
356 151
356 156
356 157
356 162
356 166
356 167
356 171
356 181
356 195
356 196
356 197
356 208
356 216
356 219
356 220
356 223
356 224
356 235
356 236
356 238
356 239
356 241
356 243
356 246
356 254
356 255
356 260
356 261
356 262
356 263
356 265
356 267
356 268
356 283
356 284
356 288
356 295
356 297
356 304
356 306
356 307
356 324
356 331
356 335
356 344
356 346
356 347
356 349
356 353
356 367
356 374
356 375
356 377
356 392
356 394
356 395
356 396
356 397
356 398
356 403
356 410
356 414
356 415
356 422
356 434
356 440
356 443
356 452
356 460
356 464
356 470
356 471
356 479
356 486
356 490
356 493
356 502
356 506
356 509
356 514
356 526
356 530
356 533
356 537
356 539
356 546
356 549
356 550
356 552
356 567
356 569
356 571
356 572
356 574
356 580
356 588
356 590
